
******************************************************************************
This program contains Ipopt, a library for large-scale nonlinear optimization.
 Ipopt is released as open source code under the Eclipse Public License (EPL).
         For more information visit http://projects.coin-or.org/Ipopt

This version of Ipopt was compiled from source code available at
    https://github.com/IDAES/Ipopt as part of the Institute for the Design of
    Advanced Energy Systems Process Systems Engineering Framework (IDAES PSE
    Framework) Copyright (c) 2018-2019. See https://github.com/IDAES/idaes-pse.

This version of Ipopt was compiled using HSL, a collection of Fortran codes
    for large-scale scientific computation.  All technical papers, sales and
    publicity material resulting from use of the HSL codes within IPOPT must
    contain the following acknowledgement:
        HSL, a collection of Fortran codes for large-scale scientific
        computation. See http://www.hsl.rl.ac.uk.
******************************************************************************

This is Ipopt version 3.13.2, running with linear solver ma27.

Number of nonzeros in equality constraint Jacobian...:     1338
Number of nonzeros in inequality constraint Jacobian.:        0
Number of nonzeros in Lagrangian Hessian.............:     2052

Total number of variables............................:      486
                     variables with only lower bounds:      108
                variables with lower and upper bounds:      324
                     variables with only upper bounds:        0
Total number of equality constraints.................:      480
Total number of inequality constraints...............:        0
        inequality constraints with only lower bounds:        0
   inequality constraints with lower and upper bounds:        0
        inequality constraints with only upper bounds:        0

iter    objective    inf_pr   inf_du lg(mu)  ||d||  lg(rg) alpha_du alpha_pr  ls
   0  0.0000000e+00 3.12e+00 4.22e-15  -1.0 0.00e+00    -  0.00e+00 0.00e+00   0
   1  1.1957562e+02 2.78e+00 1.50e+05  -1.0 1.09e+06    -  1.15e-01 1.11e-01h  1
   2  1.1571538e+02 2.70e+00 1.54e+05  -1.0 1.19e+06    -  4.64e-02 2.68e-02f  3
   3  7.1095393e+02 7.89e+00 8.47e+05  -1.0 6.14e+05    -  2.70e-03 3.57e-01h  1
   4  7.1119530e+02 7.86e+00 8.44e+05  -1.0 2.72e+05  -4.0 2.65e-01 3.40e-03h  1
   5  7.1118036e+02 7.86e+00 8.44e+05  -1.0 2.26e+05  -4.5 2.33e-01 4.12e-04h  1
   6  1.1258277e+03 3.97e+00 1.58e+07  -1.0 2.31e+05  -5.0 2.30e-01 4.95e-01h  2
   7  1.0293573e+03 2.80e+00 1.85e+07  -1.0 6.33e+05  -4.5 2.40e-01 2.94e-01f  2
   8  1.0310551e+03 2.79e+00 1.84e+07  -1.0 2.78e+05  -4.1 4.85e-01 3.13e-03h  1
   9  1.5686268e+03 3.60e-01 3.68e+07  -1.0 1.98e+05  -3.7 5.92e-01 9.90e-01h  1
iter    objective    inf_pr   inf_du lg(mu)  ||d||  lg(rg) alpha_du alpha_pr  ls
  10  2.3697271e+03 1.93e-01 2.03e+07  -1.0 4.06e+05  -4.2 7.23e-01 4.51e-01h  1
  11  4.0762069e+03 4.98e-02 2.60e+07  -1.0 1.92e+05  -3.7 8.49e-01 9.90e-01h  1
  12  3.8950110e+03 6.86e-03 4.35e+06  -1.0 2.66e+04  -3.3 7.33e-01 9.90e-01f  1
  13  3.8321513e+03 8.38e-04 5.56e+07  -1.0 1.40e+04  -3.8 3.92e-01 9.90e-01f  1
  14  3.8635508e+03 1.91e-05 7.22e+06  -1.0 2.45e+03  -4.3 9.89e-01 9.90e-01h  1
  15  3.8637291e+03 2.05e-07 1.90e+07  -1.0 6.84e+01  -4.7 9.90e-01 9.90e-01h  1
  16  3.8618856e+03 2.25e-08 1.53e+08  -2.5 2.24e+02  -5.2 9.97e-01 9.97e-01f  1
In iteration 16, 27 Slacks too small, adjusting variable bounds
  17  3.8586097e+03 3.23e-07 2.62e+12  -2.5 5.35e+02  -5.7 1.00e+00 9.97e-01f  1
  18  3.8514253e+03 2.73e-06 1.83e+01  -2.5 1.57e+03  -6.2 1.00e+00 1.00e+00f  1
  19  3.8317436e+03 1.74e-05 2.55e+10  -8.6 4.23e+03  -6.6 9.96e-01 9.89e-01f  1
iter    objective    inf_pr   inf_du lg(mu)  ||d||  lg(rg) alpha_du alpha_pr  ls
  20  3.7785774e+03 1.54e-04 6.92e+07  -8.6 1.20e+04  -7.1 9.95e-01 1.00e+00f  1
  21  3.6334150e+03 1.44e-03 1.89e+03  -8.6 4.56e+04  -7.6 1.00e+00 1.00e+00f  1
  22  3.3502839e+03 3.71e-02 1.11e+04  -8.6 1.08e+05  -8.1 1.00e+00 1.00e+00f  1
  23  3.2386009e+03 1.59e+00 1.87e+04  -8.6 1.74e+05    -  1.00e+00 1.00e+00f  1
  24  2.9433684e+03 1.74e-01 2.26e+03  -8.6 1.72e+05    -  1.00e+00 1.00e+00f  1
  25  2.9110797e+03 1.68e-01 1.64e+03  -8.6 2.28e+05    -  1.00e+00 2.50e-01f  3
  26  3.0367849e+03 1.03e-01 8.48e+02  -8.6 1.25e+05    -  1.00e+00 5.00e-01h  2
  27  3.1211422e+03 4.20e-01 4.17e+02  -8.6 3.22e+04    -  1.00e+00 1.00e+00h  1
  28  3.0752141e+03 6.27e-01 3.07e+02  -8.6 3.73e+04    -  1.00e+00 5.00e-01f  2
  29  3.1120243e+03 7.64e-01 2.40e+02  -8.6 1.83e+04    -  1.00e+00 1.00e+00h  1
iter    objective    inf_pr   inf_du lg(mu)  ||d||  lg(rg) alpha_du alpha_pr  ls
  30  3.0799101e+03 2.05e-01 1.15e+02  -8.6 1.31e+04  -6.7 1.00e+00 1.00e+00f  1
  31  3.0829896e+03 1.79e-01 1.01e+02  -8.6 1.54e+04    -  1.00e+00 1.25e-01h  4
  32  3.1220674e+03 1.20e-02 4.62e+02  -8.6 1.61e+04    -  1.00e+00 1.00e+00h  1
  33  3.1170390e+03 2.31e-01 2.75e+02  -8.6 1.23e+04    -  1.00e+00 5.00e-01f  2
  34  2.9972669e+03 7.50e-01 1.47e+03  -8.6 5.01e+04    -  1.00e+00 1.00e+00f  1
  35  3.0716475e+03 3.89e-02 1.49e+03  -8.6 7.61e+04    -  1.00e+00 1.00e+00h  1
  36  3.0989251e+03 1.11e-01 1.81e+02  -8.6 4.39e+04    -  1.00e+00 1.00e+00h  1
  37  3.0652241e+03 4.44e-01 1.85e+02  -8.6 3.68e+04    -  1.00e+00 5.00e-01f  2
  38  3.0703848e+03 3.88e-01 1.62e+02  -8.6 2.34e+04    -  1.00e+00 1.25e-01h  4
  39  3.1250935e+03 4.45e-03 4.93e+02  -8.6 2.65e+04    -  1.00e+00 1.00e+00h  1
iter    objective    inf_pr   inf_du lg(mu)  ||d||  lg(rg) alpha_du alpha_pr  ls
  40  3.1263754e+03 1.80e-03 2.92e+01  -8.6 1.91e+03    -  1.00e+00 1.00e+00h  1
  41  3.1269136e+03 1.41e-04 7.00e+00  -8.6 1.84e+02    -  1.00e+00 1.00e+00h  1
  42  3.1269497e+03 1.60e-05 7.82e-01  -8.6 3.27e+01    -  1.00e+00 1.00e+00h  1
  43  3.1269549e+03 2.72e-07 1.29e-02  -8.6 4.68e+00    -  1.00e+00 1.00e+00h  1
  44  3.1269550e+03 7.76e-11 3.68e-06  -8.6 8.07e-02    -  1.00e+00 1.00e+00h  1

Number of Iterations....: 44

                                   (scaled)                 (unscaled)
Objective...............:   3.1269550026372576e+03    3.1269550026372576e+03
Dual infeasibility......:   3.6750980465478136e-06    3.6750980465478136e-06
Constraint violation....:   7.7562845035572536e-11    7.7562845035572536e-11
Complementarity.........:   2.5059035596800622e-09    2.5059035596800622e-09
Overall NLP error.......:   2.6729322302153738e-09    3.6750980465478136e-06


Number of objective function evaluations             = 73
Number of objective gradient evaluations             = 45
Number of equality constraint evaluations            = 73
Number of inequality constraint evaluations          = 0
Number of equality constraint Jacobian evaluations   = 45
Number of inequality constraint Jacobian evaluations = 0
Number of Lagrangian Hessian evaluations             = 44
Total CPU secs in IPOPT (w/o function evaluations)   =      0.107
Total CPU secs in NLP function evaluations           =      1.363

EXIT: Optimal Solution Found.
